38539598972159446485015,1,1,2,010,15,1,2,01,3,1,2,012,11,1,2,06,5,1,2,06,3,1,2,015,4,1,2,01,14,1,2,014,11,1,2,010,15,1,2,012,1,1,2,06,12,1,2,010,11,1,2,012,15,1,2,011,13,1,2,01,1,1,2,012,14,1,2,07,11,1,2,013,5,1,2,04,7,1,2,08,7,1,2,02,11,1,2,015,9,1,2,011,6,1,2,012,15,1,2,07,15,1,2,04,1,1,2,08,6,1,2,03,4,1,2,03,13,1,2,06,9,1,2,011,12,1,2,012,2,1,2,07,2,1,2,02,4,1,2,04,8,1,2,013,5,1,2,06,14,1,2,05,4,1,2,010,9,1,2,09,9,1,2,07,15,1,2,011,8,1,2,015,10,1,2,09,1,1,2,015,3,1,2,01,1,1,2,07,15,1,2,014,5,1,2,015,7,1,2,0